c uprop, v00.0, 
c reading from data/prog627.c.cnf
c done reading: 0.002503
p cnf 87 314
-41 -54 0
-43 -54 0
41 43 54 0
41 43 -59 0
-41 -43 -59 0
-41 43 59 0
41 -43 59 0
-46 54 0
-46 -47 0
46 47 -54 0
47 -50 -54 0
-47 -50 54 0
47 50 54 0
-47 50 -54 0
46 -53 0
-53 -55 0
-46 53 55 0
-46 55 -57 0
46 -55 -57 0
46 55 57 0
-46 -55 57 0
53 -58 0
-58 -60 0
-53 58 60 0
-42 -53 60 0
-42 53 -60 0
42 53 60 0
42 -53 -60 0
-40 58 0
-40 -44 0
40 44 -58 0
-39 44 -58 0
-39 -44 58 0
39 44 58 0
39 -44 -58 0
-38 40 0
-38 -48 0
38 -40 48 0
-37 -40 48 0
-37 40 -48 0
37 40 48 0
37 -40 -48 0
-36 38 0
-36 -51 0
36 -38 51 0
-35 -38 51 0
-35 38 -51 0
35 38 51 0
35 -38 -51 0
-34 47 0
-34 41 0
34 -41 -47 0
-33 -41 -47 0
-33 41 47 0
33 41 -47 0
33 -41 47 0
32 -43 -55 0
32 -34 -55 0
32 -34 -43 0
-32 43 55 0
-32 34 55 0
-32 34 43 0
-31 -32 55 0
-31 -32 43 0
-31 -32 34 0
31 32 -55 0
31 32 -43 0
31 32 -34 0
31 -34 -43 -55 0
-31 34 43 55 0
30 -47 -60 0
30 -32 -60 0
30 -32 -47 0
-30 47 60 0
-30 32 60 0
-30 32 47 0
-29 -30 60 0
-29 -30 47 0
-29 -30 32 0
29 30 -60 0
29 30 -47 0
29 30 -32 0
29 -32 -47 -60 0
-29 32 47 60 0
28 -44 -55 0
28 -30 -44 0
28 -30 -55 0
-28 44 55 0
-28 30 44 0
-28 30 55 0
-28 44 -62 0
-28 55 -62 0
-28 30 -62 0
28 -44 62 0
28 -55 62 0
28 -30 62 0
-30 -44 -55 62 0
30 44 55 -62 0
-48 -60 63 0
-28 -48 63 0
-28 -60 63 0
48 60 -63 0
28 48 -63 0
28 60 -63 0
-48 63 0
-60 63 0
-28 63 0
-28 -48 -60 0
-44 -51 64 0
-51 -63 64 0
-44 -63 64 0
44 51 -64 0
51 63 -64 0
44 63 -64 0
-51 64 0
-44 64 0
-63 64 0
-44 -51 -63 0
48 -65 0
64 -65 0
-48 -64 65 0
-48 64 0
48 -64 0
-51 -65 0
-51 65 0
51 -65 0
-41 -56 0
-43 -56 0
41 43 56 0
41 43 -61 0
-41 -43 -61 0
-41 43 61 0
41 -43 61 0
-45 56 0
-33 -45 0
33 45 -56 0
33 -49 -56 0
-33 -49 56 0
33 49 56 0
-33 49 -56 0
45 -52 0
-31 -52 0
31 -45 52 0
31 -45 -66 0
-31 45 -66 0
31 45 66 0
-31 -45 66 0
52 -67 0
-29 -67 0
29 -52 67 0
29 -52 -68 0
-29 52 -68 0
29 52 68 0
-29 -52 68 0
67 -70 0
-62 -70 0
62 -67 70 0
62 -67 -73 0
-62 67 -73 0
62 67 73 0
-62 -67 73 0
70 -75 0
-70 75 0
-70 -76 0
70 76 0
75 -77 0
-75 77 0
-75 -78 0
75 78 0
77 -79 0
-77 79 0
-77 -80 0
77 80 0
79 -81 0
-79 81 0
-79 -82 0
79 82 0
81 -83 0
-81 83 0
-81 -84 0
81 84 0
-69 -85 0
69 85 0
-72 -86 0
72 86 0
-74 -87 0
74 87 0
-25 -27 0
25 27 0
-23 -24 0
23 24 0
-20 -22 0
20 22 0
-19 74 0
19 -74 0
-18 -74 0
18 74 0
17 -19 -27 0
-17 27 0
-17 19 27 0
-17 19 0
-16 -17 27 0
-16 -17 0
-16 -17 19 0
16 17 -27 0
16 17 -19 0
-16 19 27 0
15 -24 -69 0
15 -17 -24 0
15 -17 -69 0
-15 24 69 0
-15 17 24 0
-15 17 69 0
-14 -15 24 0
-14 -15 69 0
-14 -15 17 0
14 15 -24 0
14 15 -69 0
14 15 -17 0
14 -17 -24 -69 0
-14 17 24 69 0
13 -22 -72 0
13 -15 -22 0
13 -15 -72 0
-13 22 72 0
-13 15 22 0
-13 15 72 0
-12 -13 22 0
-12 -13 72 0
-12 -13 15 0
12 13 -22 0
12 13 -72 0
12 13 -15 0
12 -15 -22 -72 0
-12 15 22 72 0
-11 74 0
-11 13 0
11 -13 -74 0
13 -74 0
-13 74 0
-10 27 0
-10 11 0
10 -11 -27 0
11 -27 0
-11 27 0
-9 24 0
-9 10 0
9 -10 -24 0
10 -24 0
-10 24 0
-9 -22 0
9 -22 0
-9 22 0
-8 -69 0
8 69 0
-7 -72 0
7 72 0
-6 -18 0
6 18 0
-5 -16 0
5 16 0
-4 -14 0
4 14 0
-3 -12 0
3 12 0
-2 41 0
-2 69 0
2 -41 -69 0
-41 69 0
41 -69 0
-43 71 -72 0
-2 -43 71 0
-2 71 -72 0
43 -71 72 0
2 43 -71 0
2 -71 72 0
-43 71 0
71 -72 0
-2 71 0
-2 -43 -72 0
-18 26 -33 0
26 -33 -71 0
-18 26 -71 0
18 -26 33 0
-26 33 71 0
18 -26 71 0
26 -33 0
-18 26 0
26 -71 0
-18 -33 -71 0
-16 21 -31 0
21 -26 -31 0
-16 21 -26 0
16 -21 31 0
-21 26 31 0
16 -21 26 0
-21 31 0
16 -21 0
-21 26 0
16 26 31 0
1 -14 -29 0
1 -21 -29 0
1 -14 -21 0
-1 14 29 0
-1 21 29 0
-1 14 21 0
1 -29 0
1 -14 0
1 -21 0
-14 -21 -29 0
-12 -62 0
-1 -62 0
-1 -12 0
1 12 62 0
